100
32
1
5
9
24
4
15
19
21
26
29
22
31
27
4
21
13
16
20
12
2
12
5
4
6
3
16
9
18
29
19
13
1
6
30
11
16
21
11
9
17
25
19
22
6
2
23
17
24
25
8
27
7
1
7
20
25
3
16
26
18
12
5
1
5
22
24
22
5
6
10
3
28
24
1
5
1
8
13
11
4
25
22
7
10
10
11
2
22
4
4
3
1
14
7
11
25
5
6
3
9